language Essence 1.3

letting blksize_delta be
        function(1 --> 1, 2 --> 1, 3 --> 1, 4 --> 2, 5 --> 2, 6 --> 1, 7 --> 1, 8 --> 1, 9 --> 2, 10 --> 2, 11 --> 2,
                 12 --> 2, 13 --> 1, 14 --> 1, 15 --> 1, 16 --> 2, 17 --> 2, 18 --> 2, 19 --> 2, 20 --> 2, 21 --> 1,
                 22 --> 1, 23 --> 1, 24 --> 2, 25 --> 2, 26 --> 1, 27 --> 2, 28 --> 2, 29 --> 1, 30 --> 1, 31 --> 2,
                 32 --> 1, 33 --> 1, 34 --> 1, 35 --> 2, 36 --> 1, 37 --> 1, 38 --> 1, 39 --> 1, 40 --> 1, 41 --> 2,
                 42 --> 2, 43 --> 1, 44 --> 1, 45 --> 1, 46 --> 1, 47 --> 2, 48 --> 2, 49 --> 2, 50 --> 1, 51 --> 1,
                 52 --> 2, 53 --> 2, 54 --> 1, 55 --> 1, 56 --> 1, 57 --> 1, 58 --> 2, 59 --> 2, 60 --> 1, 61 --> 1,
                 62 --> 2, 63 --> 1, 64 --> 1, 65 --> 1, 66 --> 1, 67 --> 2, 68 --> 2, 69 --> 2, 70 --> 1)
letting maxcars be
        function(1 --> 7, 2 --> 6, 3 --> 6, 4 --> 4, 5 --> 7, 6 --> 7, 7 --> 4, 8 --> 8, 9 --> 4, 10 --> 3, 11 --> 4,
                 12 --> 4, 13 --> 4, 14 --> 7, 15 --> 5, 16 --> 7, 17 --> 6, 18 --> 5, 19 --> 3, 20 --> 6, 21 --> 6,
                 22 --> 4, 23 --> 8, 24 --> 7, 25 --> 6, 26 --> 8, 27 --> 8, 28 --> 8, 29 --> 3, 30 --> 3, 31 --> 4,
                 32 --> 3, 33 --> 7, 34 --> 8, 35 --> 3, 36 --> 4, 37 --> 3, 38 --> 4, 39 --> 6, 40 --> 8, 41 --> 3,
                 42 --> 4, 43 --> 6, 44 --> 8, 45 --> 5, 46 --> 5, 47 --> 3, 48 --> 5, 49 --> 5, 50 --> 8, 51 --> 5,
                 52 --> 5, 53 --> 8, 54 --> 3, 55 --> 6, 56 --> 4, 57 --> 3, 58 --> 7, 59 --> 6, 60 --> 5, 61 --> 8,
                 62 --> 8, 63 --> 7, 64 --> 7, 65 --> 8, 66 --> 4, 67 --> 6, 68 --> 3, 69 --> 8, 70 --> 6)
letting n_cars be 70
letting n_classes be 3
letting n_options be 70
letting quantity be function(1 --> 24, 2 --> 23, 3 --> 23)
letting usage be
        relation((1, 1), (1, 5), (1, 6), (1, 7), (1, 13), (1, 16), (1, 19), (1, 23), (1, 25), (1, 29), (1, 30), (1, 32),
                 (1, 38), (1, 39), (1, 41), (1, 44), (1, 45), (1, 47), (1, 50), (1, 52), (1, 54), (1, 55), (1, 56),
                 (1, 59), (1, 60), (1, 61), (1, 62), (1, 63), (1, 64), (1, 65), (1, 66), (1, 67), (1, 69), (2, 6),
                 (2, 10), (2, 11), (2, 12), (2, 13), (2, 15), (2, 17), (2, 18), (2, 24), (2, 25), (2, 31), (2, 32),
                 (2, 34), (2, 38), (2, 41), (2, 45), (2, 47), (2, 48), (2, 51), (2, 52), (2, 54), (2, 56), (2, 58),
                 (2, 59), (2, 65), (2, 66), (2, 67), (2, 68), (2, 70), (3, 1), (3, 2), (3, 3), (3, 4), (3, 5), (3, 7),
                 (3, 8), (3, 9), (3, 11), (3, 12), (3, 13), (3, 14), (3, 20), (3, 21), (3, 22), (3, 23), (3, 26),
                 (3, 27), (3, 28), (3, 30), (3, 31), (3, 33), (3, 35), (3, 36), (3, 37), (3, 39), (3, 40), (3, 42),
                 (3, 43), (3, 44), (3, 46), (3, 47), (3, 48), (3, 49), (3, 50), (3, 51), (3, 53), (3, 55), (3, 56),
                 (3, 57), (3, 61), (3, 62), (3, 63), (3, 65), (3, 66), (3, 67))
$ Visualisation for usage
$  1  1
$  1  5
$  1  6
$  1  7
$  1 13
$  1 16
$  1 19
$  1 23
$  1 25
$  1 29
$  1 30
$  1 32
$  1 38
$  1 39
$  1 41
$  1 44
$  1 45
$  1 47
$  1 50
$  1 52
$  1 54
$  1 55
$  1 56
$  1 59
$  1 60
$  1 61
$  1 62
$  1 63
$  1 64
$  1 65
$  1 66
$  1 67
$  1 69
$  2  6
$  2 10
$  2 11
$  2 12
$  2 13
$  2 15
$  2 17
$  2 18
$  2 24
$  2 25
$  2 31
$  2 32
$  2 34
$  2 38
$  2 41
$  2 45
$  2 47
$  2 48
$  2 51
$  2 52
$  2 54
$  2 56
$  2 58
$  2 59
$  2 65
$  2 66
$  2 67
$  2 68
$  2 70
$  3  1
$  3  2
$  3  3
$  3  4
$  3  5
$  3  7
$  3  8
$  3  9
$  3 11
$  3 12
$  3 13
$  3 14
$  3 20
$  3 21
$  3 22
$  3 23
$  3 26
$  3 27
$  3 28
$  3 30
$  3 31
$  3 33
$  3 35
$  3 36
$  3 37
$  3 39
$  3 40
$  3 42
$  3 43
$  3 44
$  3 46
$  3 47
$  3 48
$  3 49
$  3 50
$  3 51
$  3 53
$  3 55
$  3 56
$  3 57
$  3 61
$  3 62
$  3 63
$  3 65
$  3 66
$  3 67

